
%FILE DATA:	Soccer Computational Problem for MiniZinc Models	%
%AUTHOR:	Jack Wall	%
%CONTACT:  	116397063@umail.ucc.ie			%
%LAST UPDATE:	03/02/2020, 19:05:33						%
%DESCRIPTION: 	96 games played with 36 games left				%


n=12; %number of teams

%Games to play
games=[|1,11|7,8|1,4|8,11|7,9|4,2|2,4|2,7|3,10|3,5|2,3|7,12|12,4|4,3|5,4|2,12|4,7|2,11|6,9|11,2|2,5|8,9|1,12|2,8|12,7|11,1|7,11|5,2|5,1|6,10|10,8|3,4|10,5|11,10|3,9|11,8|];

%Initial points
iPoints=[23,13,22,15,17,28,27,18,29,23,11,26];

%POSITION CONSTRAINTS
% [|teamID, operator, position|...]
% operators index:
%  1 for =  operator
%  2 for >  operator
%  3 for >= operator
%  4 for <  operator
%  5 for <= operator
positionConstraints=[|7,1,1|9,1,2|10,1,3|12,2,3|];